p cnf 15 26
1 8 13 -11 0
-1 -8 0
-1 -13 0
-1 11 0
2 -13 -11 7 0
-2 13 0
-2 11 0
-2 -7 0
3 -14 15 0
-3 14 0
-3 -15 0
4 -7 -10 12 14 0
-4 7 0
-4 10 0
-4 -12 0
-4 -14 0
5 -8 9 -10 0
-5 8 0
-5 -9 0
-5 10 0
6 9 10 -11 -12 0
-6 -9 0
-6 -10 0
-6 11 0
-6 12 0
1 2 3 4 5 6 0
